c t pmc
p cnf 843 577
c p show 1 2 3 4 5 6 7 8 9 10 11 12 13 14 15 16 17 18 19 20 21 22 23 24 25 26 27 0
-4 -1 0
-7 -1 0
-1 -4 0
-7 -4 0
-1 -7 0
-4 -7 0
-13 -10 0
-16 -10 0
-10 -13 0
-16 -13 0
-10 -16 0
-13 -16 0
-22 -19 0
-25 -19 0
-19 -22 0
-25 -22 0
-19 -25 0
-22 -25 0
-5 -2 0
-8 -2 0
-2 -5 0
-8 -5 0
-2 -8 0
-5 -8 0
-14 -11 0
-17 -11 0
-11 -14 0
-17 -14 0
-11 -17 0
-14 -17 0
-23 -20 0
-26 -20 0
-20 -23 0
-26 -23 0
-20 -26 0
-23 -26 0
-6 -3 0
-9 -3 0
-3 -6 0
-9 -6 0
-3 -9 0
-6 -9 0
-15 -12 0
-18 -12 0
-12 -15 0
-18 -15 0
-12 -18 0
-15 -18 0
-24 -21 0
-27 -21 0
-21 -24 0
-27 -24 0
-21 -27 0
-24 -27 0
-10 -1 0
-19 -1 0
-1 -10 0
-19 -10 0
-1 -19 0
-10 -19 0
-13 -4 0
-22 -4 0
-4 -13 0
-22 -13 0
-4 -22 0
-13 -22 0
-16 -7 0
-25 -7 0
-7 -16 0
-25 -16 0
-7 -25 0
-16 -25 0
-11 -2 0
-20 -2 0
-2 -11 0
-20 -11 0
-2 -20 0
-11 -20 0
-14 -5 0
-23 -5 0
-5 -14 0
-23 -14 0
-5 -23 0
-14 -23 0
-17 -8 0
-26 -8 0
-8 -17 0
-26 -17 0
-8 -26 0
-17 -26 0
-12 -3 0
-21 -3 0
-3 -12 0
-21 -12 0
-3 -21 0
-12 -21 0
-15 -6 0
-24 -6 0
-6 -15 0
-24 -15 0
-6 -24 0
-15 -24 0
-18 -9 0
-27 -9 0
-9 -18 0
-27 -18 0
-9 -27 0
-18 -27 0
-1 1 0
-10 4 0
-19 7 0
-4 10 0
-13 13 0
-22 16 0
-7 19 0
-16 22 0
-25 25 0
-2 2 0
-11 5 0
-20 8 0
-5 11 0
-14 14 0
-23 17 0
-8 20 0
-17 23 0
-26 26 0
-3 3 0
-12 6 0
-21 9 0
-6 12 0
-15 15 0
-24 18 0
-9 21 0
-18 24 0
-27 27 0
1 2 3 0
-1 -2 0
-1 -3 0
-2 -3 0
4 5 6 0
-4 -5 0
-4 -6 0
-5 -6 0
7 8 9 0
-7 -8 0
-7 -9 0
-8 -9 0
10 11 12 0
-10 -11 0
-10 -12 0
-11 -12 0
13 14 15 0
-13 -14 0
-13 -15 0
-14 -15 0
16 17 18 0
-16 -17 0
-16 -18 0
-17 -18 0
19 20 21 0
-19 -20 0
-19 -21 0
-20 -21 0
22 23 24 0
-22 -23 0
-22 -24 0
-23 -24 0
25 26 27 0
-25 -26 0
-25 -27 0
-26 -27 0
-792 -1 25 26 0
-792 -2 25 0
-792 -3 0
-793 -1 27 0
-793 -2 26 0
-793 -3 25 0
792 793 0
792 794 0
-794 795 796 0
-794 795 797 0
-797 798 799 0
-797 798 800 0
-800 801 802 0
-800 801 803 0
-803 804 805 0
-803 804 806 0
-806 807 808 0
-806 807 809 0
-809 810 811 0
-809 810 812 0
-812 813 814 0
-812 813 815 0
-815 816 817 0
-795 -4 22 23 0
-795 -5 22 0
-795 -6 0
-796 -4 24 0
-796 -5 23 0
-796 -6 22 0
792 793 0
792 794 0
-794 795 796 0
-794 795 797 0
-797 798 799 0
-797 798 800 0
-800 801 802 0
-800 801 803 0
-803 804 805 0
-803 804 806 0
-806 807 808 0
-806 807 809 0
-809 810 811 0
-809 810 812 0
-812 813 814 0
-812 813 815 0
-815 816 817 0
-798 -7 19 20 0
-798 -8 19 0
-798 -9 0
-799 -7 21 0
-799 -8 20 0
-799 -9 19 0
792 793 0
792 794 0
-794 795 796 0
-794 795 797 0
-797 798 799 0
-797 798 800 0
-800 801 802 0
-800 801 803 0
-803 804 805 0
-803 804 806 0
-806 807 808 0
-806 807 809 0
-809 810 811 0
-809 810 812 0
-812 813 814 0
-812 813 815 0
-815 816 817 0
-801 -10 16 17 0
-801 -11 16 0
-801 -12 0
-802 -10 18 0
-802 -11 17 0
-802 -12 16 0
792 793 0
792 794 0
-794 795 796 0
-794 795 797 0
-797 798 799 0
-797 798 800 0
-800 801 802 0
-800 801 803 0
-803 804 805 0
-803 804 806 0
-806 807 808 0
-806 807 809 0
-809 810 811 0
-809 810 812 0
-812 813 814 0
-812 813 815 0
-815 816 817 0
-804 13 0
-805 14 0
792 793 0
792 794 0
-794 795 796 0
-794 795 797 0
-797 798 799 0
-797 798 800 0
-800 801 802 0
-800 801 803 0
-803 804 805 0
-803 804 806 0
-806 807 808 0
-806 807 809 0
-809 810 811 0
-809 810 812 0
-812 813 814 0
-812 813 815 0
-815 816 817 0
-807 -16 10 11 0
-807 -17 10 0
-807 -18 0
-808 -16 12 0
-808 -17 11 0
-808 -18 10 0
792 793 0
792 794 0
-794 795 796 0
-794 795 797 0
-797 798 799 0
-797 798 800 0
-800 801 802 0
-800 801 803 0
-803 804 805 0
-803 804 806 0
-806 807 808 0
-806 807 809 0
-809 810 811 0
-809 810 812 0
-812 813 814 0
-812 813 815 0
-815 816 817 0
-810 -19 7 8 0
-810 -20 7 0
-810 -21 0
-811 -19 9 0
-811 -20 8 0
-811 -21 7 0
792 793 0
792 794 0
-794 795 796 0
-794 795 797 0
-797 798 799 0
-797 798 800 0
-800 801 802 0
-800 801 803 0
-803 804 805 0
-803 804 806 0
-806 807 808 0
-806 807 809 0
-809 810 811 0
-809 810 812 0
-812 813 814 0
-812 813 815 0
-815 816 817 0
-813 -22 4 5 0
-813 -23 4 0
-813 -24 0
-814 -22 6 0
-814 -23 5 0
-814 -24 4 0
792 793 0
792 794 0
-794 795 796 0
-794 795 797 0
-797 798 799 0
-797 798 800 0
-800 801 802 0
-800 801 803 0
-803 804 805 0
-803 804 806 0
-806 807 808 0
-806 807 809 0
-809 810 811 0
-809 810 812 0
-812 813 814 0
-812 813 815 0
-815 816 817 0
-816 -25 1 2 0
-816 -26 1 0
-816 -27 0
-817 -25 3 0
-817 -26 2 0
-817 -27 1 0
792 793 0
792 794 0
-794 795 796 0
-794 795 797 0
-797 798 799 0
-797 798 800 0
-800 801 802 0
-800 801 803 0
-803 804 805 0
-803 804 806 0
-806 807 808 0
-806 807 809 0
-809 810 811 0
-809 810 812 0
-812 813 814 0
-812 813 815 0
-815 816 817 0
-818 -1 13 15 0
-818 -2 15 0
-818 -3 0
-819 -1 14 0
-819 -2 13 0
-819 -3 15 0
818 819 0
818 820 0
-820 821 822 0
-820 821 823 0
-823 824 825 0
-823 824 826 0
-826 827 828 0
-826 827 829 0
-829 830 831 0
-829 830 832 0
-832 833 834 0
-832 833 835 0
-835 836 837 0
-835 836 838 0
-838 839 840 0
-838 839 841 0
-841 842 843 0
-821 -4 10 12 0
-821 -5 12 0
-821 -6 0
-822 -4 11 0
-822 -5 10 0
-822 -6 12 0
818 819 0
818 820 0
-820 821 822 0
-820 821 823 0
-823 824 825 0
-823 824 826 0
-826 827 828 0
-826 827 829 0
-829 830 831 0
-829 830 832 0
-832 833 834 0
-832 833 835 0
-835 836 837 0
-835 836 838 0
-838 839 840 0
-838 839 841 0
-841 842 843 0
-824 -7 16 18 0
-824 -8 18 0
-824 -9 0
-825 -7 17 0
-825 -8 16 0
-825 -9 18 0
818 819 0
818 820 0
-820 821 822 0
-820 821 823 0
-823 824 825 0
-823 824 826 0
-826 827 828 0
-826 827 829 0
-829 830 831 0
-829 830 832 0
-832 833 834 0
-832 833 835 0
-835 836 837 0
-835 836 838 0
-838 839 840 0
-838 839 841 0
-841 842 843 0
-827 -10 4 6 0
-827 -11 6 0
-827 -12 0
-828 -10 5 0
-828 -11 4 0
-828 -12 6 0
818 819 0
818 820 0
-820 821 822 0
-820 821 823 0
-823 824 825 0
-823 824 826 0
-826 827 828 0
-826 827 829 0
-829 830 831 0
-829 830 832 0
-832 833 834 0
-832 833 835 0
-835 836 837 0
-835 836 838 0
-838 839 840 0
-838 839 841 0
-841 842 843 0
-830 -13 1 3 0
-830 -14 3 0
-830 -15 0
-831 -13 2 0
-831 -14 1 0
-831 -15 3 0
818 819 0
818 820 0
-820 821 822 0
-820 821 823 0
-823 824 825 0
-823 824 826 0
-826 827 828 0
-826 827 829 0
-829 830 831 0
-829 830 832 0
-832 833 834 0
-832 833 835 0
-835 836 837 0
-835 836 838 0
-838 839 840 0
-838 839 841 0
-841 842 843 0
-833 -16 7 9 0
-833 -17 9 0
-833 -18 0
-834 -16 8 0
-834 -17 7 0
-834 -18 9 0
818 819 0
818 820 0
-820 821 822 0
-820 821 823 0
-823 824 825 0
-823 824 826 0
-826 827 828 0
-826 827 829 0
-829 830 831 0
-829 830 832 0
-832 833 834 0
-832 833 835 0
-835 836 837 0
-835 836 838 0
-838 839 840 0
-838 839 841 0
-841 842 843 0
-836 -19 22 24 0
-836 -20 24 0
-836 -21 0
-837 -19 23 0
-837 -20 22 0
-837 -21 24 0
818 819 0
818 820 0
-820 821 822 0
-820 821 823 0
-823 824 825 0
-823 824 826 0
-826 827 828 0
-826 827 829 0
-829 830 831 0
-829 830 832 0
-832 833 834 0
-832 833 835 0
-835 836 837 0
-835 836 838 0
-838 839 840 0
-838 839 841 0
-841 842 843 0
-839 -22 19 21 0
-839 -23 21 0
-839 -24 0
-840 -22 20 0
-840 -23 19 0
-840 -24 21 0
818 819 0
818 820 0
-820 821 822 0
-820 821 823 0
-823 824 825 0
-823 824 826 0
-826 827 828 0
-826 827 829 0
-829 830 831 0
-829 830 832 0
-832 833 834 0
-832 833 835 0
-835 836 837 0
-835 836 838 0
-838 839 840 0
-838 839 841 0
-841 842 843 0
-842 25 0
-843 27 0
818 819 0
818 820 0
-820 821 822 0
-820 821 823 0
-823 824 825 0
-823 824 826 0
-826 827 828 0
-826 827 829 0
-829 830 831 0
-829 830 832 0
-832 833 834 0
-832 833 835 0
-835 836 837 0
-835 836 838 0
-838 839 840 0
-838 839 841 0
-841 842 843 0
